Maximize
  - 15 x0 + 46 x1 - 42 x2 - 16 x3 - 33 x4 + 34 x5 + 39 x6 + 0 x7 + 26 x8
   + 27 x9 + 7 x10 + 4 x11 + 49 x12 - 38 x13 - 38 x14 - 7 x15 + 0 x16
   - 36 x17 + 3 x18 + 11 x19 + 0 x20 - 31 x21 + 18 x22 + 0 x23 + 0 x24
   + 32 x25 - 17 x26 + 12 x27 + 44 x28 - 45 x29 + [ 24 x0 ^2 + 54 x0 * x1
   - 88 x0 * x2 + 40 x0 * x3 + 28 x0 * x4 + 18 x0 * x5 + 94 x0 * x6
   - 94 x0 * x7 - 64 x0 * x8 - 16 x0 * x11 + 58 x0 * x12 + 98 x0 * x13
   - 88 x0 * x14 - 50 x0 * x15 - 2 x0 * x16 - 30 x0 * x19 - 22 x0 * x20
   - 40 x0 * x21 + 52 x0 * x22 - 58 x0 * x23 - 48 x0 * x24 - 30 x0 * x25
   - 8 x0 * x26 + 24 x0 * x27 + 80 x0 * x28 + 70 x0 * x29 + 39 x1 ^2
   + 32 x1 * x2 - 2 x1 * x3 + 76 x1 * x4 - 54 x1 * x5 - 8 x1 * x6
   + 68 x1 * x7 - 84 x1 * x8 - 14 x1 * x10 + 40 x1 * x11 + 44 x1 * x12
   - 14 x1 * x13 - 80 x1 * x14 - 50 x1 * x16 + 72 x1 * x17 + 80 x1 * x18
   + 32 x1 * x19 + 54 x1 * x21 + 80 x1 * x22 - 62 x1 * x23 - 32 x1 * x24
   - 66 x1 * x26 - 10 x1 * x28 + 34 x1 * x29 + 36 x2 ^2 - 2 x2 * x3
   + 42 x2 * x4 - 20 x2 * x5 + 8 x2 * x7 - 62 x2 * x9 + 52 x2 * x10
   + 54 x2 * x11 - 56 x2 * x12 + 24 x2 * x13 - 18 x2 * x14 + 82 x2 * x15
   - 56 x2 * x16 + 72 x2 * x17 - 74 x2 * x19 - 60 x2 * x20 - 36 x2 * x21
   - 86 x2 * x22 + 12 x2 * x23 + 82 x2 * x25 - 32 x2 * x26 + 96 x2 * x27
   + 12 x2 * x28 + 74 x2 * x29 + 12 x3 ^2 + 22 x3 * x4 + 58 x3 * x5
   - 44 x3 * x6 - 74 x3 * x7 + 28 x3 * x8 - 38 x3 * x9 + 58 x3 * x10
   - 82 x3 * x11 + 24 x3 * x12 + 78 x3 * x13 + 60 x3 * x14 - 76 x3 * x15
   + 38 x3 * x16 - 32 x3 * x17 + 12 x3 * x18 + 92 x3 * x19 - 56 x3 * x20
   + 60 x3 * x22 + 32 x3 * x23 - 14 x3 * x24 + 42 x3 * x25 - 46 x3 * x26
   + 24 x3 * x28 - 64 x3 * x29 + 5 x4 ^2 + 34 x4 * x5 - 90 x4 * x6
   - 84 x4 * x7 - 28 x4 * x8 - 54 x4 * x9 + 96 x4 * x10 + 34 x4 * x11
   + 58 x4 * x12 - 8 x4 * x13 + 16 x4 * x14 + 4 x4 * x15 - 92 x4 * x17
   - 72 x4 * x18 - 40 x4 * x19 - 42 x4 * x20 - 70 x4 * x22 - 40 x4 * x23
   + 94 x4 * x24 + 26 x4 * x25 - 46 x4 * x26 + 64 x4 * x27 - 36 x4 * x28
   - 88 x4 * x29 + 46 x5 ^2 + 66 x5 * x6 - 76 x5 * x7 - 48 x5 * x8
   + 10 x5 * x9 + 16 x5 * x10 + 74 x5 * x11 + 76 x5 * x12 + 64 x5 * x13
   - 18 x5 * x14 + 34 x5 * x15 + 40 x5 * x16 - 76 x5 * x17 - 96 x5 * x18
   - 78 x5 * x19 - 32 x5 * x20 - 56 x5 * x21 + 36 x5 * x23 + 96 x5 * x25
   + 52 x5 * x26 - 78 x5 * x27 + 48 x5 * x28 + 92 x5 * x29 + 38 x6 * x7
   + 58 x6 * x8 + 18 x6 * x9 - 82 x6 * x10 + 64 x6 * x11 + 96 x6 * x12
   + 92 x6 * x13 + 28 x6 * x15 - 40 x6 * x16 - 28 x6 * x17 - 4 x6 * x19
   + 26 x6 * x22 + 36 x6 * x23 - 38 x6 * x24 - 34 x6 * x25 + 10 x6 * x26
   - 90 x6 * x27 + 98 x6 * x28 - 82 x6 * x29 + 17 x7 ^2 - 66 x7 * x8
   + 4 x7 * x9 - 40 x7 * x10 - 50 x7 * x11 - 60 x7 * x12 - 70 x7 * x13
   + 86 x7 * x14 - 70 x7 * x15 - 6 x7 * x16 - 90 x7 * x17 + 78 x7 * x18
   + 90 x7 * x19 - 16 x7 * x21 - 2 x7 * x22 + 40 x7 * x23 + 86 x7 * x24
   + 36 x7 * x25 - 46 x7 * x26 - 8 x7 * x27 + 2 x7 * x28 - 8 x7 * x29
   - 26 x8 ^2 - 44 x8 * x9 + 78 x8 * x10 - 28 x8 * x11 - 58 x8 * x12
   - 22 x8 * x14 + 40 x8 * x15 + 96 x8 * x17 + 54 x8 * x18 + 12 x8 * x19
   + 92 x8 * x20 + 86 x8 * x21 + 10 x8 * x22 - 84 x8 * x23 - 86 x8 * x24
   + 30 x8 * x25 - 14 x8 * x26 + 72 x8 * x27 + 20 x8 * x28 - 62 x8 * x29
   + 11 x9 ^2 + 60 x9 * x10 - 92 x9 * x11 - 60 x9 * x12 - 40 x9 * x13
   + 30 x9 * x14 + 44 x9 * x15 + 54 x9 * x16 + 80 x9 * x17 - 16 x9 * x18
   + 62 x9 * x19 + 62 x9 * x20 + 60 x9 * x21 + 68 x9 * x22 - 28 x9 * x24
   + 66 x9 * x25 - 84 x9 * x26 + 72 x9 * x27 + 92 x9 * x28 - 34 x9 * x29
   + 27 x10 ^2 - 62 x10 * x11 + 2 x10 * x13 + 34 x10 * x14 + 88 x10 * x15
   + 60 x10 * x16 - 36 x10 * x17 + 68 x10 * x18 - 38 x10 * x19
   - 22 x10 * x20 + 92 x10 * x21 + 92 x10 * x22 + 32 x10 * x23
   - 76 x10 * x24 - 58 x10 * x25 + 38 x10 * x26 - 48 x10 * x28
   - 26 x10 * x29 - 47 x11 ^2 + 26 x11 * x12 - 34 x11 * x13 + 28 x11 * x14
   - 96 x11 * x16 + 98 x11 * x17 - 84 x11 * x18 - 46 x11 * x19
   - 4 x11 * x20 - 70 x11 * x21 + 68 x11 * x24 - 86 x11 * x25
   - 22 x11 * x26 - 60 x11 * x27 + 88 x11 * x28 - 88 x11 * x29 + 35 x12 ^2
   - 32 x12 * x13 + 12 x12 * x15 + 14 x12 * x17 - 16 x12 * x18
   + 78 x12 * x19 - 84 x12 * x20 + 58 x12 * x22 + 64 x12 * x23
   - 80 x12 * x25 - 22 x12 * x26 - 68 x12 * x27 - 26 x12 * x28
   - 92 x12 * x29 + x13 ^2 - 90 x13 * x15 + 76 x13 * x16 + 88 x13 * x17
   - 66 x13 * x18 - 42 x13 * x19 + 22 x13 * x20 + 38 x13 * x21
   - 60 x13 * x23 - 88 x13 * x25 + 96 x13 * x26 + 18 x13 * x27
   + 26 x13 * x28 - 56 x13 * x29 - 43 x14 ^2 - 56 x14 * x15 - 78 x14 * x17
   - 76 x14 * x18 - 98 x14 * x19 + 20 x14 * x20 + 80 x14 * x22
   + 46 x14 * x23 - 64 x14 * x24 + 18 x14 * x25 - 94 x14 * x26
   + 24 x14 * x27 + 80 x14 * x29 - 19 x15 ^2 - 52 x15 * x16 - 86 x15 * x17
   - 98 x15 * x18 + 20 x15 * x19 - 82 x15 * x20 + 22 x15 * x21
   + 34 x15 * x22 - 66 x15 * x23 - 98 x15 * x24 - 80 x15 * x25
   - 92 x15 * x26 + 12 x15 * x27 - 50 x15 * x28 + 22 x15 * x29 - 25 x16 ^2
   - 80 x16 * x17 + 22 x16 * x18 - 20 x16 * x19 + 74 x16 * x20
   - 96 x16 * x21 + 60 x16 * x22 + 82 x16 * x23 + 4 x16 * x24 + 4 x16 * x26
   - 66 x16 * x27 - 64 x16 * x28 - 24 x17 ^2 - 12 x17 * x18 + 2 x17 * x19
   - 4 x17 * x20 + 6 x17 * x21 + 96 x17 * x22 + 94 x17 * x23 - 38 x17 * x24
   + 32 x17 * x25 - 70 x17 * x26 - 66 x17 * x27 + 62 x17 * x28
   + 64 x17 * x29 - 43 x18 ^2 + 84 x18 * x19 - 44 x18 * x21 + 88 x18 * x22
   + 50 x18 * x23 + 70 x18 * x26 + 80 x18 * x27 + 72 x18 * x28
   + 14 x18 * x29 + 17 x19 ^2 + 20 x19 * x20 - 10 x19 * x21 - 22 x19 * x22
   - 62 x19 * x23 + 38 x19 * x25 + 82 x19 * x26 - 42 x19 * x27 - 23 x20 ^2
   + 72 x20 * x21 + 26 x20 * x22 + 16 x20 * x23 - 32 x20 * x24
   - 22 x20 * x25 - 68 x20 * x26 - 40 x20 * x27 + 74 x20 * x28
   - 82 x20 * x29 - 30 x21 ^2 + 16 x21 * x22 - 12 x21 * x23 + 66 x21 * x24
   + 44 x21 * x25 - 26 x21 * x26 - 80 x21 * x28 - 78 x22 * x26
   - 74 x22 * x27 - 16 x22 * x28 + 44 x22 * x29 + 2 x23 ^2 + 72 x23 * x24
   + 80 x23 * x25 + 80 x23 * x26 + 10 x23 * x27 - 36 x23 * x28
   + 46 x23 * x29 - 20 x24 ^2 + 38 x24 * x26 - 54 x24 * x27 + 86 x24 * x28
   - 24 x24 * x29 + 22 x25 ^2 + 20 x25 * x28 - 28 x25 * x29 - 74 x26 * x27
   - 26 x26 * x28 + 38 x26 * x29 + 31 x27 ^2 + 6 x27 * x28 - 96 x27 * x29
   - 11 x28 ^2 + 22 x28 * x29 ] / 2 
Subject To
Bounds
 x0 <= 1
 x1 <= 1
 x2 <= 1
 x3 <= 1
 x4 <= 1
 x5 <= 1
 x6 <= 1
 x7 <= 1
 x8 <= 1
 x9 <= 1
 x10 <= 1
 x11 <= 1
 x12 <= 1
 x13 <= 1
 x14 <= 1
 x15 <= 1
 x16 <= 1
 x17 <= 1
 x18 <= 1
 x19 <= 1
 x20 <= 1
 x21 <= 1
 x22 <= 1
 x23 <= 1
 x24 <= 1
 x25 <= 1
 x26 <= 1
 x27 <= 1
 x28 <= 1
 x29 <= 1
End
